unknown
(:binary-propagations  5926
 :decisions            589
 :del-clause           1099
 :final-checks         2
 :max-generation       1
 :max-memory           54.87
 :memory               35.53
 :mk-bool-var          9694
 :mk-clause            1410
 :mk-clause-binary     6595
 :num-allocs           781897966
 :num-checks           1
 :propagations         6006
 :quant-instantiations 1099
 :restarts             1
 :rlimit-count         2091652
 :time                 0.32)
